82
25
0 29 37 38 39 43 44 46 47 48 50 51 54 55 58 61 66 68 69 70 71 73 81
1 25 26 29 30 33 37 39 43 44 46 47 50 51 54 56 58 63 68 69 70 71 75 77 79 80
2 25 30 33 36 38 39 40 43 44 45 46 48 51 52 56 60 61 64 65 69 70 71 73 79 80
3 29 31 34 35 37 38 39 40 41 42 44 45 46 48 51 54 56 58 66 68 69 70 71 73 74 75 77 78 81
4 25 27 29 30 32 37 38 39 40 41 42 43 44 46 48 51 54 56 58 60 61 65 66 68 69 70 71 72 77 79 80 81
5 29 32 33 34 35 37 38 39 44 46 48 51 52 54 55 58 63 64 65 66 67 68 71 72 75 79 80 81
6 25 29 30 33 34 37 38 39 40 41 42 44 45 46 47 48 51 54 56 58 59 66 69 70 71 75 76 79 81
7 29 30 31 33 37 39 40 41 44 45 46 48 50 51 54 55 58 65 68 69 71 75 77 79
8 25 27 29 33 36 38 40 42 43 44 45 46 55 58 65 68 69 70 71 73 74 75 76 77 78 79 81
9 26 29 30 33 37 39 41 44 46 48 50 51 52 58 66 69 70 71 72 73 74 77 78
10 25 30 31 33 38 40 44 51 56 60 63 65 66 67 68 70 71 72 79
11 28 30 31 33 34 36 38 41 45 51 54 55 58 62 63 64 65 66 70 75 78 81
12 25 28 29 30 33 35 37 38 41 42 45 50 51 52 54 56 61 66 69 72 73 74 75 77 79 81
13 25 29 30 33 34 37 38 39 42 49 50 51 52 53 56 57 59 61 65 68 69 70 72 73 74 77
14 34 38 42 45 46 47 48 63 68 70 72 73 79
15 25 28 29 34 35 38 40 44 46 48 50 54 57 58 63 66 67 73 74
16 31 33 35 42 43 45 48 55 56 61 62 63 66 67 72 73 74 77 78 80 81
17 30 34 37 42 43 46 58 62 64 65 67 68 77 79 80 81
18 29 33 51 52 63 64 68 70 73 74
19 27 28 39 41 50 61 64 69 70 71 79 80
20 26 27 28 30 31 35 36 37 40 42 46 49 56 57 60 61 62 63 68 71 72 81
21 25 28 32 33 34 38 48 52 58 65 67 69 76 79
22 40 43 46 51 65 67 73 75 78
23 26 41 70 72
24 43
